% Auto-generated by scripts/generate_dzn.py
% problem_type   = regex
% instance       = regex_83
% source_json    = instances_json/2_high_blowup/regex_83.json
% blowup         = 11.2
% representation = NFA

mode = 1;

var_count = 20;
n_constraints = 2;
Q = 14;
S = 2;
q0 = [1, 1];
F = [{11}, {14}];
weights = [7, 1, 4, 4, 1, 5, 10, 5, 8, 4, 9, 4, 1, 6, 7, 5, 10, 3, 3, 4];
d_dfa = array3d(1..2, 1..14, 1..2, [
  % k = 1
    0, 0,
    0, 0,
    0, 0,
    0, 0,
    0, 0,
    0, 0,
    0, 0,
    0, 0,
    0, 0,
    0, 0,
    0, 0,
    0, 0,
    0, 0,
    0, 0,

  % k = 2
    0, 0,
    0, 0,
    0, 0,
    0, 0,
    0, 0,
    0, 0,
    0, 0,
    0, 0,
    0, 0,
    0, 0,
    0, 0,
    0, 0,
    0, 0,
    0, 0
]);
d_nfa = array3d(1..2, 1..14, 1..2, [
  % k = 1
    {1, 2}, {1},
    {3}, {},
    {4}, {4},
    {5}, {5},
    {6}, {6},
    {7}, {7},
    {8}, {8},
    {9}, {9},
    {10}, {10},
    {11}, {11},
    {}, {},
    {}, {},
    {}, {},
    {}, {},

  % k = 2
    {1}, {2},
    {2}, {3},
    {3}, {4},
    {4}, {5},
    {5}, {6},
    {6}, {7},
    {7}, {8},
    {8}, {9},
    {9}, {10},
    {10}, {11},
    {11}, {12},
    {12}, {13},
    {13}, {14},
    {14}, {}
]);
